120
150
52
54
47
53
49
51
44
51
53
54
56
43
48
50
52
57
59
59
48
57
52
44
47
55
45
51
46
49
51
41
52
47
53
47
50
45
56
50
57
59
50
50
49
56
59
43
49
50
45
41
55
50
42
59
57
44
48
53
53
51
55
41
56
53
44
54
50
59
41
52
53
44
56
45
49
51
46
50
44
59
51
47
54
41
60
46
54
45
50
50
54
44
52
57
57
49
48
47
41
44
55
46
46
50
56
56
48
51
44
56
43
56
52
42
46
52
59
48
47
55
